
<<< setup


<<< generate

Version identifier: 22.1.1.0 | 2022-11-28 | 9160aff4d
CPXPARAM_TimeLimit                               1800
Found incumbent of value 0.000000 after 0.00 sec. (0.01 ticks)
Tried aggregator 7 times.
MIP Presolve eliminated 263 rows and 47 columns.
MIP Presolve modified 67 coefficients.
Aggregator did 96 substitutions.
Reduced MIP has 86 rows, 157 columns, and 626 nonzeros.
Reduced MIP has 157 binaries, 0 generals, 0 SOSs, and 0 indicators.
Presolve time = 0.00 sec. (3.21 ticks)
Probing time = 0.00 sec. (0.42 ticks)
Tried aggregator 3 times.
MIP Presolve eliminated 8 rows and 1 columns.
MIP Presolve modified 5 coefficients.
Aggregator did 54 substitutions.
Reduced MIP has 24 rows, 102 columns, and 338 nonzeros.
Reduced MIP has 102 binaries, 0 generals, 0 SOSs, and 0 indicators.
Presolve time = 0.00 sec. (0.90 ticks)
Probing time = 0.00 sec. (0.16 ticks)
Tried aggregator 1 time.
Detecting symmetries...
Reduced MIP has 24 rows, 102 columns, and 338 nonzeros.
Reduced MIP has 102 binaries, 0 generals, 0 SOSs, and 0 indicators.
Presolve time = 0.00 sec. (0.33 ticks)
Probing time = 0.00 sec. (0.16 ticks)
Clique table members: 24.
MIP emphasis: balance optimality and feasibility.
MIP search method: dynamic search.
Parallel mode: deterministic, using up to 8 threads.
Root relaxation solution time = 0.00 sec. (0.16 ticks)

        Nodes                                         Cuts/
   Node  Left     Objective  IInf  Best Integer    Best Bound    ItCnt     Gap

*     0+    0                            0.0000      194.0000              --- 
*     0+    0                           12.0000      194.0000              --- 
*     0+    0                           13.0000      194.0000              --- 
      0     0       13.6000    12       13.0000       13.6000       40    4.62%
      0     0        cutoff             13.0000       13.6000       40    4.62%
Elapsed time = 0.01 sec. (5.76 ticks, tree = 0.01 MB, solutions = 2)

Root node processing (before b&c):
  Real time             =    0.01 sec. (5.78 ticks)
Parallel b&c, 8 threads:
  Real time             =    0.00 sec. (0.00 ticks)
  Sync time (average)   =    0.00 sec.
  Wait time (average)   =    0.00 sec.
                          ------------
Total (root+branch&cut) =    0.01 sec. (5.78 ticks)

<<< solve


OBJECTIVE: 13

<<< post process


<<< done

